22256659070285724845011,6,1,2,04,11,1,2,010,4,1,2,04,8,1,2,08,2,1,2,05,10,1,2,04,4,1,2,010,9,1,2,07,9,1,2,02,11,1,2,01,10,1,2,03,14,1,2,011,7,1,2,04,13,1,2,07,4,1,2,08,11,1,2,05,11,1,2,010,15,1,2,01,3,1,2,012,4,1,2,014,12,1,2,011,13,1,2,04,11,1,2,011,7,1,2,010,8,1,2,04,1,1,2,04,13,1,2,010,4,1,2,06,10,1,2,09,5,1,2,015,13,1,2,015,12,1,2,09,15,1,2,04,4,1,2,09,1,1,2,06,9,1,2,011,14,1,2,08,8,1,2,012,10,1,2,010,6,1,2,012,10,1,2,09,2,1,2,010,6,1,2,07,14,1,2,012,10,1,2,09,8,1,2,01,7,1,2,06,3,1,2,02,10,1,2,06,3,1,2,0